(set-option :print-success true)
(set-option :produce-assignments true)
(set-option :produce-abducts true)
(set-option :incremental true)
(set-logic QF_UFLIA)
(set-option :sygus-core-connective false)
(declare-fun qnum0 () Int)
(declare-fun mul (Int Int ) Int)
(declare-fun qnum () Int)
(declare-fun posqden () Int)
(declare-fun posqden0 () Int)
(assert (< (mul 0 posqden) (mul qnum 1)))
(assert (< 0 (mul qnum qnum0)))
(assert (= (mul (mul qnum qnum0) 1) (mul qnum qnum0)))
(assert (= (mul qnum0 1) qnum0))
(assert (= (mul qnum 1) qnum))
(assert (< (mul 0 posqden0) (mul qnum0 1)))
(get-abduct A (< (mul 0 (mul posqden posqden0)) (mul (mul qnum qnum0) 1)))

